c Random 5-CNF over 30 variables and 60 clauses
c Generated with `cnfgen`
c (C) 2012-2016 Massimo Lauria <lauria.massimo@gmail.com>
c https://massimolauria.github.io/cnfgen
c
c COMMAND LINE: cnfgen --output tmp-5-30-60.dimacs --output-format dimacs randkcnf 5 30 60
c
c sdimacs generated by gen-sdimacs
c
p cnf 30 60
r 0.5 1 2 3 4 5 6 7 8 9 10 11 12 13 14 15 0
e  16 17 18 19 20 21 22 23 24 25 26 27 28 29 30 0
4 -11 15 20 28 0
-8 9 16 19 -27 0
5 6 7 18 -27 0
-3 12 18 24 27 0
-2 9 -12 21 -30 0
-1 5 13 18 -30 0
-2 -6 -21 -25 30 0
-2 -11 -13 -20 23 0
2 -3 5 -11 24 0
-2 5 11 -17 -24 0
15 18 -21 -22 -24 0
3 -4 -7 -9 -27 0
-8 9 10 18 -24 0
5 -9 -11 13 -30 0
-1 -6 -8 -13 25 0
3 -15 -23 -25 26 0
-2 -7 -8 16 -27 0
-2 13 -17 25 29 0
-7 -13 -19 -21 -26 0
-2 4 18 -22 -24 0
-4 -15 -22 24 26 0
-5 -6 10 17 23 0
1 -9 -12 -16 -29 0
-6 10 21 23 -25 0
4 7 -13 14 -30 0
-5 -7 -10 15 -21 0
-2 -3 6 10 19 0
-3 -5 -15 -21 -24 0
-4 5 -19 21 -29 0
-3 -6 -8 18 -19 0
-1 -12 20 24 -25 0
5 -18 22 -27 30 0
2 19 -22 -25 26 0
-7 10 11 23 24 0
-9 -10 15 -19 26 0
-2 -3 -12 -13 21 0
4 -15 22 24 26 0
8 11 12 14 -26 0
-4 10 12 -21 -27 0
7 9 -14 -25 28 0
-1 8 18 -26 -28 0
-2 -4 -8 25 28 0
4 -16 17 -29 30 0
3 -8 9 -15 -28 0
12 -13 -14 15 -30 0
-3 4 -10 15 -21 0
-6 -13 -15 18 29 0
4 18 -19 -24 28 0
1 12 -17 -18 -24 0
8 -9 -22 -23 -28 0
3 9 -14 22 -25 0
16 -17 19 -20 26 0
-14 23 -24 -26 29 0
-9 -14 17 -24 28 0
2 3 6 -11 -16 0
-2 -9 20 -25 29 0
-6 -10 -14 -26 -27 0
-2 -3 9 14 20 0
-11 15 17 22 -29 0
-7 9 14 22 -25 0
